NAME: instances/10_1.tsp
TYPE: TSP
COMMENT: 10-Staedte in Burma (Zaw Win)
DIMENSION: 10
EDGE_WEIGHT_TYPE: GEO
EDGE_WEIGHT_FORMAT: FUNCTION
DISPLAY_DATA_TYPE: COORD_DISPLAY
NODE_COORD_SECTION
1 -14.12 13.8
2 -2.21 -18.62
3 6.94 8.52
4 -8.83 2.05
5 1.92 -9.62
6 12.09 29.15
7 10.35 14.74
8 -5.63 20.26
9 -21.16 21.03
10 -18.79 -23.5
EOF
